Problem:    problem
Rows:       67
Columns:    20 (20 integer, 20 binary)
Non-zeros:  128
Status:     INTEGER OPTIMAL
Objective:  totalcost = 4.8 (MINimum)

   No.   Row name        Activity     Lower bound   Upper bound
------ ------------    ------------- ------------- -------------
     1 totalcost                 4.8                             
     2 actor_allocation[1]
                                   1             1             = 
     3 actor_allocation[2]
                                   1             1             = 
     4 primary_pairing[1,1,1,1]
                                   0                          -0 
     5 primary_pairing[1,1,1,2]
                                  -1                          -0 
     6 primary_pairing[1,1,2,1]
                                   0                          -0 
     7 primary_pairing[1,1,2,2]
                                   0                          -0 
     8 primary_pairing[1,2,1,1]
                                  -1                          -0 
     9 primary_pairing[1,2,1,2]
                                   0                          -0 
    10 primary_pairing[1,2,2,1]
                                   0                          -0 
    11 primary_pairing[1,2,2,2]
                                   0                          -0 
    12 primary_pairing[2,1,1,1]
                                   0                          -0 
    13 primary_pairing[2,1,1,2]
                                   0                          -0 
    14 primary_pairing[2,1,2,1]
                                   0                          -0 
    15 primary_pairing[2,1,2,2]
                                  -1                          -0 
    16 primary_pairing[2,2,1,1]
                                   0                          -0 
    17 primary_pairing[2,2,1,2]
                                   0                          -0 
    18 primary_pairing[2,2,2,1]
                                  -1                          -0 
    19 primary_pairing[2,2,2,2]
                                   0                          -0 
    20 secondary_pairing[1,1,1,1]
                                   0                          -0 
    21 secondary_pairing[1,1,1,2]
                                   0                          -0 
    22 secondary_pairing[1,1,2,1]
                                  -1                          -0 
    23 secondary_pairing[1,1,2,2]
                                   0                          -0 
    24 secondary_pairing[1,2,1,1]
                                   0                          -0 
    25 secondary_pairing[1,2,1,2]
                                   0                          -0 
    26 secondary_pairing[1,2,2,1]
                                   0                          -0 
    27 secondary_pairing[1,2,2,2]
                                  -1                          -0 
    28 secondary_pairing[2,1,1,1]
                                  -1                          -0 
    29 secondary_pairing[2,1,1,2]
                                   0                          -0 
    30 secondary_pairing[2,1,2,1]
                                   0                          -0 
    31 secondary_pairing[2,1,2,2]
                                   0                          -0 
    32 secondary_pairing[2,2,1,1]
                                   0                          -0 
    33 secondary_pairing[2,2,1,2]
                                  -1                          -0 
    34 secondary_pairing[2,2,2,1]
                                   0                          -0 
    35 secondary_pairing[2,2,2,2]
                                   0                          -0 
    36 sum_pairing[1,1,1,1]
                                   1                           1 
    37 sum_pairing[1,1,1,2]
                                   1                           1 
    38 sum_pairing[1,1,2,1]
                                   1                           1 
    39 sum_pairing[1,1,2,2]
                                   0                           1 
    40 sum_pairing[1,2,1,1]
                                   1                           1 
    41 sum_pairing[1,2,1,2]
                                   1                           1 
    42 sum_pairing[1,2,2,1]
                                   0                           1 
    43 sum_pairing[1,2,2,2]
                                   1                           1 
    44 sum_pairing[2,1,1,1]
                                   1                           1 
    45 sum_pairing[2,1,1,2]
                                   0                           1 
    46 sum_pairing[2,1,2,1]
                                   1                           1 
    47 sum_pairing[2,1,2,2]
                                   1                           1 
    48 sum_pairing[2,2,1,1]
                                   0                           1 
    49 sum_pairing[2,2,1,2]
                                   1                           1 
    50 sum_pairing[2,2,2,1]
                                   1                           1 
    51 sum_pairing[2,2,2,2]
                                   1                           1 
    52 non_overlap[1,1,1,1]
                                   0            -0             = 
    53 non_overlap[1,1,1,2]
                                   0            -0             = 
    54 non_overlap[1,1,2,1]
                                   0            -0             = 
    55 non_overlap[1,1,2,2]
                                   0            -0             = 
    56 non_overlap[1,2,1,1]
                                   0            -0             = 
    57 non_overlap[1,2,1,2]
                                   0            -0             = 
    58 non_overlap[1,2,2,1]
                                   0            -0             = 
    59 non_overlap[1,2,2,2]
                                   0            -0             = 
    60 non_overlap[2,1,1,1]
                                   0            -0             = 
    61 non_overlap[2,1,1,2]
                                   0            -0             = 
    62 non_overlap[2,1,2,1]
                                   0            -0             = 
    63 non_overlap[2,1,2,2]
                                   0            -0             = 
    64 non_overlap[2,2,1,1]
                                   0            -0             = 
    65 non_overlap[2,2,1,2]
                                   0            -0             = 
    66 non_overlap[2,2,2,1]
                                   0            -0             = 
    67 non_overlap[2,2,2,2]
                                   0            -0             = 

   No. Column name       Activity     Lower bound   Upper bound
------ ------------    ------------- ------------- -------------
     1 x[1,1]       *              1             0             1 
     2 x[1,2]       *              0             0             1 
     3 x[2,1]       *              0             0             1 
     4 x[2,2]       *              1             0             1 
     5 y[1,1,1,1]   *              1             0             1 
     6 y[1,1,1,2]   *              0             0             1 
     7 y[1,1,2,1]   *              0             0             1 
     8 y[1,1,2,2]   *              0             0             1 
     9 y[1,2,1,1]   *              0             0             1 
    10 y[1,2,1,2]   *              1             0             1 
    11 y[1,2,2,1]   *              0             0             1 
    12 y[1,2,2,2]   *              0             0             1 
    13 y[2,1,1,1]   *              0             0             1 
    14 y[2,1,1,2]   *              0             0             1 
    15 y[2,1,2,1]   *              1             0             1 
    16 y[2,1,2,2]   *              0             0             1 
    17 y[2,2,1,1]   *              0             0             1 
    18 y[2,2,1,2]   *              0             0             1 
    19 y[2,2,2,1]   *              0             0             1 
    20 y[2,2,2,2]   *              1             0             1 

Integer feasibility conditions:

KKT.PE: max.abs.err = 0.00e+00 on row 0
        max.rel.err = 0.00e+00 on row 0
        High quality

KKT.PB: max.abs.err = 0.00e+00 on row 0
        max.rel.err = 0.00e+00 on row 0
        High quality

End of output
